
Log started (V11.0.0) Sun Apr 13 13:00:34 2008

Tried aggregator 1 time.
Reduced MIP has 130 rows, 3001 columns, and 6030 nonzeros.
Presolve time =    0.03 sec.
Clique table members: 100.
MIP emphasis: balance optimality and feasibility.
MIP search method: dynamic search.
Parallel mode: none, using 1 thread.
Root relaxation solution time =    0.08 sec.

        Nodes                                         Cuts/
   Node  Left     Objective  IInf  Best Integer     Best Node    ItCnt     Gap

*     0+    0                         4656.0000       15.0882      568   99.68%
*     0+    0                           51.0000       15.0882      568   70.42%
      0     0       16.0000    43       51.0000      Fract: 5      576   68.63%
*     0+    0                           34.0000       16.0000      576   52.94%
      0     0       18.6486    33       34.0000   Impl Bds: 1      668   45.15%
*     0+    0                           32.0000       18.6486      668   41.72%
      0     0       20.6667    27       32.0000      Cuts: 16      686   35.42%
*     0+    0                           30.0000       20.6667      686   31.11%
      0     0       23.0000    10       30.0000     Covers: 2      688   23.33%
*     0+    0                           27.0000       23.0000      688   14.81%
*     0+    0                           24.0000       23.0000      688    4.17%
*     0+    0                           23.0000       23.0000      688    0.00%

Clique cuts applied:  2
Cover cuts applied:  2
Implied bound cuts applied:  1
Mixed integer rounding cuts applied:  9

Solution pool: 8 solutions saved.

MIP - Integer optimal solution:  Objective = 2.3000000000e+001
Solution time =    0.42 sec.  Iterations = 688  Nodes = 0


Incumbent solution
Variable Name           Solution Value
Cmax                         23.000000
X_1_13                        1.000000
X_2_23                        1.000000
X_3_10                        1.000000
X_4_28                        1.000000
X_5_24                        1.000000
X_6_14                        1.000000
X_7_16                        1.000000
X_8_25                        1.000000
X_9_26                        1.000000
X_10_23                       1.000000
X_11_18                       1.000000
X_12_29                       1.000000
X_13_17                       1.000000
X_14_14                       1.000000
X_15_30                       1.000000
X_16_5                        1.000000
X_17_21                       1.000000
X_18_29                       1.000000
X_19_21                       1.000000
X_20_20                       1.000000
X_21_23                       1.000000
X_22_11                       1.000000
X_23_30                       1.000000
X_24_12                       1.000000
X_25_16                       1.000000
X_26_18                       1.000000
X_27_3                        1.000000
X_28_15                       1.000000
X_29_22                       1.000000
X_30_16                       1.000000
X_31_4                        1.000000
X_32_15                       1.000000
X_33_5                        1.000000
X_34_22                       1.000000
X_35_24                       1.000000
X_36_22                       1.000000
X_37_4                        1.000000
X_38_26                       1.000000
X_39_1                        1.000000
X_40_9                        1.000000
X_41_16                       1.000000
X_42_23                       1.000000
X_43_21                       1.000000
X_44_2                        1.000000
X_45_11                       1.000000
X_46_3                        1.000000
X_47_7                        1.000000
X_48_19                       1.000000
X_49_7                        1.000000
X_50_18                       1.000000
X_51_17                       1.000000
X_52_2                        1.000000
X_53_23                       1.000000
X_54_28                       1.000000
X_55_24                       1.000000
X_56_19                       1.000000
X_57_2                        1.000000
X_58_28                       1.000000
X_59_30                       1.000000
X_60_8                        1.000000
X_61_13                       1.000000
X_62_29                       1.000000
X_63_13                       1.000000
X_64_30                       1.000000
X_65_6                        1.000000
X_66_20                       1.000000
X_67_5                        1.000000
X_68_19                       1.000000
X_69_29                       1.000000
X_70_11                       1.000000
X_71_10                       1.000000
X_72_25                       1.000000
X_73_28                       1.000000
X_74_8                        1.000000
X_75_27                       1.000000
X_76_2                        1.000000
X_77_26                       1.000000
X_78_20                       1.000000
X_79_22                       1.000000
X_80_1                        1.000000
X_81_12                       1.000000
X_82_23                       1.000000
X_83_22                       1.000000
X_84_30                       1.000000
X_85_9                        1.000000
X_86_20                       1.000000
X_87_13                       1.000000
X_88_17                       1.000000
X_89_4                        1.000000
X_90_30                       1.000000
X_91_5                        1.000000
X_92_25                       1.000000
X_93_15                       1.000000
X_94_7                        1.000000
X_95_1                        1.000000
X_96_23                       1.000000
X_97_6                        1.000000
X_98_11                       1.000000
X_99_9                        1.000000
X_100_20                      1.000000
All other variables in the range 1-3001 are 0.
